NAME : mEgtspf.pid11408.gtsp.161061383.tour
COMMENT : Length = 161061383
COMMENT : Found by LKH [Keld Helsgaun] Wed Mar 19 21:10:55 2025
TYPE : TOUR
DIMENSION : 90
TOUR_SECTION
1
70
67
68
69
87
88
89
90
15
16
17
18
8
9
40
41
42
39
37
38
35
36
52
53
54
51
3
43
44
45
46
32
33
34
31
10
65
66
63
64
72
73
74
71
4
79
80
81
82
56
57
58
55
49
50
47
48
12
13
14
11
29
30
27
28
7
2
5
20
21
22
19
60
61
62
59
83
84
85
86
26
23
24
25
78
75
76
77
6
-1
EOF
